# Simple Filter Simulation



# Setting the varialbe for the simulation



# geometry parameter

variable DEM_domain_width equal 0.005 
variable DEM_domain_height equal 0.05 
variable DEM_domain_depth equal 0.04 
variable DEM_sample_width equal 0.005 
variable DEM_sample_top equal 0.01 
variable DEM_sample_bottom equal 0 


# particle physical property

variable DEM_density equal 2500 
variable DEM_youngsModulus equal 5e6 
variable DEM_poissonRatio equal 0.2 
variable DEM_coefficientRestitution equal 0.3 
variable DEM_coefficientFriction equal 0.5 
variable DEM_k_finnie equal 1 
variable DEM_cohesionEnergyDensity equal 0 


# DEM simulation setting

variable DEM_particle_number equal 1400 
variable DEM_insert_rate equal 570 
variable DEM_particle_velocity equal 1e-2
variable DEM_time_step equal 1e-5 
variable DEM_iteration equal 350000 


variable DEM_thermo_step equal 1000 
variable DEM_dump_step equal 1000 
variable DEM_print_step equal 1000 
variable DEM_insert_step equal 10000 
variable DEM_gravity equal 9.81 
variable DEM_cutoff equal 1e-3 


# initialize the simulation


units si

newton off

boundary p p f

atom_style granular

atom_modify map array sort 0 2 # Add sort 0 2 is necessary to execute the program successfully 

communicate single vel yes

pair_style gran model hertz tangential history cohesion sjkr

read_restart ../DEM/liggghts.restart


# define the system domain and sample region

region domain block -${DEM_domain_width} ${DEM_domain_width} -${DEM_domain_width} ${DEM_domain_width} -${DEM_domain_depth} ${DEM_domain_height} units box

region sample block -${DEM_sample_width} ${DEM_sample_width} -${DEM_sample_width} ${DEM_sample_width} ${DEM_sample_bottom} ${DEM_sample_top} units box

# create_box 1 domain # if read_restart is used, create_box command can not be used





# define the wall, insertion face and particle

fix cad all mesh/surface file ../DEM/stl_file/box.stl type 1 # please be careful about the path of stl file

fix inface all mesh/surface file ../DEM/stl_file/inlet.stl type 1

fix granwalls all wall/gran model hertz tangential history cohesion sjkr mesh n_meshes 1 meshes cad




# read_restart ../DEM/liggghts.restart
group nve_group region domain




fix m1 all property/global youngsModulus peratomtype ${DEM_youngsModulus}

fix m2 all property/global poissonsRatio peratomtype ${DEM_poissonRatio}

fix m3 all property/global coefficientRestitution peratomtypepair 1 ${DEM_coefficientRestitution}

fix m4 all property/global coefficientFriction peratomtypepair 1 ${DEM_coefficientFriction}

fix m5 all property/global k_finnie peratomtypepair 1 ${DEM_k_finnie}

fix m6 all property/global cohesionEnergyDensity peratomtypepair 1 ${DEM_cohesionEnergyDensity}



# define the simulation setting

fix gravi all gravity ${DEM_gravity} vector 0.0 0.0 -1.0

neighbor ${DEM_cutoff} bin

neigh_modify delay 0

timestep ${DEM_time_step}

pair_coeff * *


# cfd coupling
fix cfd all couple/cfd couple_every 100000 mpi # the number is overwritten by the number in CFD/couplingProperties
fix cfd2 all couple/cfd/force/implicit


# set the process monitor parameter

fix integr nve_group nve/sphere

compute 1 all erotate/sphere

thermo ${DEM_thermo_step}

thermo_style custom step atoms

thermo_modify lost ignore norm no



# set the vtk output parameter
dump dmp all custom/vtk ${DEM_dump_step} ../DEM/vtk_file/CFDEM_particle_*.vtk id type x y z ix iy iz vx vy vz fx fy fz omegax omegay omegaz radius
dump dumpstress all mesh/vtk ${DEM_dump_step} ../DEM/vtk_file/CFDEM_box_*.vtk cad wear stress

# set the porosity output parameter
variable DEM_step equal step
variable DEM_sample_mass equal mass(all,sample)
variable DEM_sample_porosity equal 1-v_DEM_sample_mass/(v_DEM_sample_top-v_DEM_sample_bottom)/(2*v_DEM_sample_width)/(2*v_DEM_sample_width)/v_DEM_density
variable DEM_sample_number equal count(all,sample)

fix output all print ${DEM_print_step} "${DEM_step},${DEM_sample_porosity},${DEM_sample_number}" screen no file ../Result/CFDEM_porosity.csv

run 0

